NAME: cuum930.tsp
TYPE: TSP
COMMENT: User-generated TSP file
DIMENSION: 930
EDGE_WEIGHT_TYPE: EUC_2D
NODE_COORD_SECTION
1 744.0 886.0
2 367.0 238.0
3 854.0 834.0
4 587.0 793.0
5 668.0 270.0
6 477.0 905.0
7 671.0 28.0
8 771.0 463.0
9 151.0 916.0
10 147.0 208.0
11 679.0 53.0
12 670.0 555.0
13 4.0 221.0
14 687.0 2.0
15 884.0 869.0
16 459.0 821.0
17 121.0 815.0
18 158.0 231.0
19 525.0 33.0
20 833.0 528.0
21 35.0 602.0
22 415.0 802.0
23 325.0 481.0
24 570.0 864.0
25 395.0 273.0
26 48.0 575.0
27 669.0 718.0
28 781.0 9.0
29 72.0 913.0
30 306.0 798.0
31 631.0 805.0
32 157.0 662.0
33 392.0 232.0
34 726.0 614.0
35 554.0 423.0
36 129.0 250.0
37 756.0 502.0
38 630.0 278.0
39 521.0 284.0
40 81.0 83.0
41 5.0 736.0
42 78.0 227.0
43 7.0 327.0
44 818.0 102.0
45 286.0 334.0
46 460.0 862.0
47 115.0 580.0
48 212.0 834.0
49 179.0 126.0
50 170.0 889.0
51 354.0 403.0
52 226.0 268.0
53 156.0 484.0
54 161.0 778.0
55 20.0 784.0
56 329.0 175.0
57 178.0 756.0
58 661.0 143.0
59 732.0 26.0
60 920.0 415.0
61 471.0 534.0
62 572.0 252.0
63 713.0 660.0
64 23.0 403.0
65 542.0 674.0
66 824.0 716.0
67 755.0 835.0
68 489.0 448.0
69 892.0 92.0
70 84.0 386.0
71 712.0 41.0
72 873.0 868.0
73 419.0 276.0
74 907.0 168.0
75 487.0 160.0
76 281.0 908.0
77 34.0 234.0
78 614.0 895.0
79 215.0 787.0
80 768.0 172.0
81 447.0 319.0
82 136.0 880.0
83 304.0 571.0
84 524.0 585.0
85 651.0 337.0
86 164.0 528.0
87 810.0 636.0
88 839.0 585.0
89 760.0 9.0
90 820.0 380.0
91 259.0 45.0
92 880.0 304.0
93 798.0 141.0
94 135.0 543.0
95 225.0 583.0
96 362.0 366.0
97 771.0 420.0
98 580.0 805.0
99 547.0 907.0
100 444.0 141.0
101 393.0 415.0
102 150.0 442.0
103 525.0 389.0
104 59.0 665.0
105 222.0 850.0
106 71.0 76.0
107 601.0 295.0
108 61.0 928.0
109 320.0 396.0
110 444.0 401.0
111 807.0 362.0
112 440.0 640.0
113 493.0 876.0
114 436.0 229.0
115 792.0 726.0
116 527.0 821.0
117 574.0 129.0
118 335.0 76.0
119 303.0 875.0
120 212.0 922.0
121 611.0 293.0
122 899.0 163.0
123 371.0 569.0
124 338.0 477.0
125 710.0 34.0
126 86.0 328.0
127 766.0 929.0
128 87.0 384.0
129 41.0 440.0
130 431.0 336.0
131 381.0 136.0
132 193.0 734.0
133 632.0 512.0
134 31.0 733.0
135 480.0 553.0
136 407.0 461.0
137 287.0 524.0
138 902.0 679.0
139 43.0 739.0
140 618.0 857.0
141 562.0 585.0
142 636.0 276.0
143 645.0 563.0
144 314.0 557.0
145 146.0 571.0
146 496.0 851.0
147 339.0 135.0
148 586.0 604.0
149 751.0 389.0
150 617.0 375.0
151 246.0 868.0
152 495.0 85.0
153 195.0 142.0
154 250.0 771.0
155 286.0 172.0
156 525.0 123.0
157 756.0 284.0
158 303.0 397.0
159 440.0 77.0
160 414.0 434.0
161 889.0 249.0
162 558.0 161.0
163 524.0 164.0
164 373.0 831.0
165 100.0 745.0
166 740.0 528.0
167 518.0 671.0
168 421.0 377.0
169 880.0 112.0
170 664.0 452.0
171 664.0 83.0
172 745.0 834.0
173 422.0 764.0
174 7.0 424.0
175 114.0 8.0
176 900.0 365.0
177 127.0 644.0
178 46.0 8.0
179 492.0 468.0
180 906.0 687.0
181 714.0 742.0
182 153.0 620.0
183 705.0 19.0
184 62.0 494.0
185 806.0 443.0
186 123.0 162.0
187 80.0 720.0
188 166.0 798.0
189 143.0 457.0
190 729.0 634.0
191 156.0 479.0
192 744.0 472.0
193 703.0 178.0
194 694.0 835.0
195 262.0 735.0
196 511.0 79.0
197 920.0 580.0
198 773.0 271.0
199 340.0 868.0
200 747.0 380.0
201 463.0 404.0
202 671.0 60.0
203 516.0 297.0
204 194.0 127.0
205 823.0 708.0
206 417.0 260.0
207 36.0 569.0
208 523.0 548.0
209 871.0 327.0
210 589.0 28.0
211 123.0 169.0
212 31.0 564.0
213 776.0 102.0
214 862.0 703.0
215 380.0 296.0
216 529.0 193.0
217 183.0 385.0
218 794.0 375.0
219 148.0 846.0
220 418.0 76.0
221 559.0 570.0
222 368.0 481.0
223 594.0 847.0
224 813.0 363.0
225 67.0 197.0
226 91.0 71.0
227 474.0 848.0
228 647.0 135.0
229 598.0 63.0
230 189.0 772.0
231 177.0 522.0
232 500.0 925.0
233 754.0 600.0
234 529.0 436.0
235 752.0 564.0
236 578.0 118.0
237 915.0 306.0
238 435.0 687.0
239 428.0 526.0
240 252.0 556.0
241 20.0 222.0
242 208.0 448.0
243 606.0 867.0
244 381.0 158.0
245 38.0 744.0
246 810.0 832.0
247 122.0 185.0
248 335.0 460.0
249 160.0 144.0
250 470.0 76.0
251 407.0 332.0
252 506.0 746.0
253 754.0 648.0
254 633.0 797.0
255 118.0 324.0
256 18.0 44.0
257 154.0 367.0
258 204.0 281.0
259 888.0 391.0
260 421.0 364.0
261 137.0 200.0
262 418.0 773.0
263 342.0 859.0
264 655.0 343.0
265 90.0 167.0
266 648.0 499.0
267 832.0 143.0
268 373.0 806.0
269 879.0 464.0
270 122.0 551.0
271 592.0 387.0
272 232.0 430.0
273 167.0 822.0
274 715.0 601.0
275 508.0 294.0
276 245.0 546.0
277 437.0 856.0
278 42.0 894.0
279 806.0 142.0
280 650.0 709.0
281 548.0 245.0
282 908.0 492.0
283 815.0 87.0
284 300.0 282.0
285 10.0 136.0
286 215.0 799.0
287 104.0 847.0
288 511.0 352.0
289 501.0 439.0
290 254.0 509.0
291 7.0 719.0
292 361.0 927.0
293 398.0 298.0
294 124.0 896.0
295 881.0 831.0
296 393.0 258.0
297 109.0 613.0
298 36.0 896.0
299 228.0 573.0
300 90.0 693.0
301 49.0 589.0
302 399.0 510.0
303 721.0 814.0
304 689.0 237.0
305 116.0 749.0
306 583.0 545.0
307 548.0 31.0
308 291.0 850.0
309 824.0 908.0
310 356.0 555.0
311 737.0 918.0
312 150.0 279.0
313 513.0 226.0
314 114.0 841.0
315 157.0 75.0
316 295.0 662.0
317 718.0 919.0
318 805.0 272.0
319 678.0 733.0
320 270.0 27.0
321 702.0 580.0
322 187.0 564.0
323 483.0 753.0
324 898.0 68.0
325 163.0 675.0
326 619.0 820.0
327 29.0 602.0
328 365.0 357.0
329 183.0 363.0
330 879.0 389.0
331 385.0 708.0
332 476.0 799.0
333 924.0 382.0
334 193.0 567.0
335 26.0 915.0
336 517.0 752.0
337 738.0 166.0
338 78.0 120.0
339 599.0 157.0
340 198.0 254.0
341 408.0 348.0
342 172.0 930.0
343 714.0 200.0
344 879.0 424.0
345 903.0 183.0
346 844.0 374.0
347 901.0 458.0
348 407.0 822.0
349 262.0 264.0
350 566.0 275.0
351 97.0 875.0
352 630.0 862.0
353 869.0 8.0
354 239.0 805.0
355 20.0 894.0
356 232.0 593.0
357 486.0 814.0
358 419.0 159.0
359 645.0 94.0
360 243.0 85.0
361 355.0 349.0
362 558.0 642.0
363 137.0 426.0
364 187.0 912.0
365 820.0 760.0
366 706.0 140.0
367 423.0 500.0
368 283.0 364.0
369 193.0 334.0
370 355.0 440.0
371 353.0 298.0
372 798.0 384.0
373 456.0 418.0
374 342.0 270.0
375 400.0 155.0
376 351.0 792.0
377 717.0 713.0
378 268.0 911.0
379 103.0 390.0
380 157.0 54.0
381 566.0 698.0
382 707.0 211.0
383 424.0 642.0
384 199.0 753.0
385 150.0 342.0
386 353.0 773.0
387 850.0 504.0
388 154.0 243.0
389 53.0 93.0
390 60.0 719.0
391 608.0 813.0
392 807.0 242.0
393 124.0 368.0
394 134.0 339.0
395 647.0 602.0
396 539.0 87.0
397 602.0 19.0
398 165.0 233.0
399 345.0 726.0
400 445.0 816.0
401 238.0 272.0
402 305.0 740.0
403 190.0 662.0
404 326.0 436.0
405 862.0 752.0
406 451.0 102.0
407 481.0 174.0
408 873.0 350.0
409 895.0 50.0
410 490.0 99.0
411 112.0 268.0
412 447.0 477.0
413 206.0 365.0
414 66.0 540.0
415 287.0 52.0
416 463.0 595.0
417 65.0 185.0
418 923.0 200.0
419 288.0 457.0
420 508.0 821.0
421 214.0 465.0
422 114.0 844.0
423 859.0 632.0
424 615.0 385.0
425 557.0 639.0
426 679.0 217.0
427 882.0 715.0
428 86.0 164.0
429 130.0 23.0
430 859.0 592.0
431 798.0 128.0
432 141.0 613.0
433 204.0 153.0
434 193.0 453.0
435 606.0 629.0
436 7.0 290.0
437 384.0 435.0
438 225.0 815.0
439 296.0 182.0
440 269.0 553.0
441 872.0 710.0
442 86.0 820.0
443 863.0 155.0
444 107.0 863.0
445 436.0 614.0
446 524.0 514.0
447 653.0 761.0
448 800.0 553.0
449 240.0 181.0
450 330.0 664.0
451 309.0 258.0
452 441.0 192.0
453 552.0 840.0
454 97.0 726.0
455 581.0 253.0
456 185.0 143.0
457 450.0 68.0
458 912.0 874.0
459 667.0 603.0
460 563.0 712.0
461 147.0 696.0
462 891.0 25.0
463 828.0 688.0
464 69.0 473.0
465 902.0 46.0
466 341.0 194.0
467 586.0 575.0
468 636.0 336.0
469 896.0 785.0
470 213.0 796.0
471 164.0 669.0
472 885.0 151.0
473 521.0 509.0
474 374.0 47.0
475 85.0 518.0
476 191.0 628.0
477 151.0 159.0
478 281.0 620.0
479 116.0 662.0
480 351.0 563.0
481 919.0 355.0
482 143.0 599.0
483 317.0 675.0
484 41.0 781.0
485 537.0 441.0
486 772.0 294.0
487 511.0 262.0
488 674.0 446.0
489 117.0 283.0
490 839.0 867.0
491 146.0 469.0
492 292.0 739.0
493 343.0 19.0
494 580.0 412.0
495 231.0 895.0
496 849.0 107.0
497 402.0 426.0
498 145.0 872.0
499 315.0 684.0
500 316.0 536.0
501 909.0 349.0
502 153.0 837.0
503 433.0 56.0
504 839.0 680.0
505 353.0 233.0
506 764.0 225.0
507 915.0 302.0
508 143.0 585.0
509 195.0 902.0
510 571.0 744.0
511 458.0 42.0
512 705.0 196.0
513 838.0 254.0
514 415.0 526.0
515 99.0 533.0
516 211.0 762.0
517 675.0 342.0
518 358.0 469.0
519 531.0 739.0
520 713.0 332.0
521 490.0 407.0
522 537.0 655.0
523 725.0 240.0
524 588.0 499.0
525 851.0 925.0
526 820.0 801.0
527 520.0 418.0
528 21.0 475.0
529 80.0 812.0
530 402.0 901.0
531 629.0 592.0
532 664.0 923.0
533 676.0 844.0
534 711.0 908.0
535 27.0 16.0
536 566.0 390.0
537 139.0 431.0
538 570.0 139.0
539 689.0 924.0
540 229.0 355.0
541 310.0 183.0
542 548.0 22.0
543 925.0 200.0
544 580.0 189.0
545 691.0 234.0
546 208.0 163.0
547 843.0 828.0
548 720.0 729.0
549 687.0 881.0
550 603.0 368.0
551 320.0 85.0
552 677.0 452.0
553 709.0 852.0
554 729.0 109.0
555 342.0 255.0
556 786.0 436.0
557 157.0 159.0
558 513.0 733.0
559 444.0 495.0
560 421.0 753.0
561 82.0 869.0
562 112.0 463.0
563 183.0 649.0
564 78.0 733.0
565 833.0 908.0
566 433.0 619.0
567 828.0 449.0
568 536.0 585.0
569 580.0 221.0
570 481.0 653.0
571 771.0 196.0
572 338.0 514.0
573 98.0 79.0
574 24.0 153.0
575 91.0 91.0
576 367.0 386.0
577 867.0 782.0
578 302.0 761.0
579 94.0 283.0
580 863.0 653.0
581 439.0 525.0
582 575.0 529.0
583 68.0 703.0
584 475.0 662.0
585 37.0 802.0
586 440.0 761.0
587 620.0 758.0
588 665.0 249.0
589 683.0 186.0
590 458.0 746.0
591 851.0 456.0
592 209.0 273.0
593 665.0 505.0
594 598.0 67.0
595 341.0 493.0
596 683.0 265.0
597 159.0 590.0
598 542.0 592.0
599 650.0 405.0
600 877.0 442.0
601 801.0 922.0
602 576.0 675.0
603 751.0 343.0
604 338.0 852.0
605 80.0 522.0
606 655.0 190.0
607 903.0 620.0
608 171.0 668.0
609 648.0 198.0
610 444.0 11.0
611 708.0 715.0
612 596.0 486.0
613 224.0 121.0
614 44.0 825.0
615 305.0 446.0
616 386.0 12.0
617 314.0 61.0
618 352.0 406.0
619 796.0 794.0
620 274.0 138.0
621 821.0 526.0
622 246.0 674.0
623 696.0 293.0
624 678.0 853.0
625 437.0 611.0
626 828.0 838.0
627 883.0 181.0
628 679.0 250.0
629 412.0 854.0
630 740.0 60.0
631 545.0 624.0
632 166.0 434.0
633 81.0 681.0
634 238.0 578.0
635 778.0 53.0
636 762.0 464.0
637 506.0 682.0
638 140.0 546.0
639 299.0 613.0
640 232.0 81.0
641 275.0 208.0
642 513.0 613.0
643 559.0 818.0
644 505.0 49.0
645 430.0 802.0
646 44.0 2.0
647 763.0 578.0
648 66.0 869.0
649 37.0 385.0
650 135.0 282.0
651 291.0 643.0
652 189.0 911.0
653 918.0 899.0
654 612.0 42.0
655 137.0 227.0
656 860.0 528.0
657 9.0 562.0
658 159.0 131.0
659 85.0 463.0
660 824.0 536.0
661 34.0 638.0
662 759.0 485.0
663 503.0 799.0
664 505.0 910.0
665 659.0 187.0
666 279.0 413.0
667 583.0 658.0
668 736.0 830.0
669 377.0 563.0
670 433.0 19.0
671 70.0 90.0
672 592.0 443.0
673 406.0 110.0
674 854.0 615.0
675 837.0 614.0
676 161.0 444.0
677 796.0 124.0
678 437.0 570.0
679 608.0 709.0
680 307.0 787.0
681 874.0 117.0
682 135.0 904.0
683 415.0 258.0
684 456.0 727.0
685 561.0 706.0
686 197.0 800.0
687 910.0 181.0
688 766.0 135.0
689 363.0 311.0
690 780.0 63.0
691 199.0 131.0
692 696.0 523.0
693 765.0 574.0
694 814.0 324.0
695 202.0 85.0
696 834.0 340.0
697 104.0 166.0
698 535.0 517.0
699 857.0 632.0
700 845.0 186.0
701 451.0 447.0
702 705.0 921.0
703 154.0 158.0
704 318.0 497.0
705 584.0 681.0
706 646.0 635.0
707 177.0 45.0
708 449.0 706.0
709 805.0 634.0
710 782.0 683.0
711 730.0 721.0
712 666.0 267.0
713 190.0 502.0
714 2.0 631.0
715 860.0 890.0
716 750.0 821.0
717 389.0 428.0
718 665.0 520.0
719 258.0 387.0
720 585.0 17.0
721 440.0 122.0
722 771.0 211.0
723 366.0 60.0
724 179.0 583.0
725 693.0 724.0
726 852.0 265.0
727 698.0 758.0
728 259.0 170.0
729 555.0 659.0
730 22.0 459.0
731 365.0 176.0
732 26.0 523.0
733 802.0 594.0
734 747.0 868.0
735 428.0 333.0
736 840.0 689.0
737 236.0 23.0
738 886.0 797.0
739 712.0 120.0
740 414.0 231.0
741 899.0 443.0
742 256.0 269.0
743 627.0 774.0
744 539.0 288.0
745 918.0 921.0
746 914.0 918.0
747 644.0 816.0
748 631.0 353.0
749 726.0 678.0
750 65.0 140.0
751 625.0 391.0
752 758.0 364.0
753 152.0 440.0
754 449.0 666.0
755 895.0 707.0
756 262.0 576.0
757 792.0 208.0
758 620.0 6.0
759 649.0 874.0
760 18.0 149.0
761 533.0 414.0
762 317.0 791.0
763 196.0 177.0
764 181.0 868.0
765 506.0 192.0
766 618.0 556.0
767 44.0 617.0
768 913.0 891.0
769 537.0 287.0
770 465.0 816.0
771 697.0 100.0
772 478.0 365.0
773 819.0 188.0
774 323.0 809.0
775 492.0 47.0
776 353.0 278.0
777 829.0 344.0
778 769.0 363.0
779 321.0 909.0
780 317.0 414.0
781 693.0 745.0
782 270.0 778.0
783 151.0 350.0
784 335.0 783.0
785 306.0 563.0
786 670.0 260.0
787 853.0 74.0
788 162.0 770.0
789 237.0 154.0
790 663.0 691.0
791 222.0 674.0
792 497.0 886.0
793 815.0 55.0
794 289.0 854.0
795 109.0 74.0
796 520.0 762.0
797 166.0 660.0
798 34.0 302.0
799 163.0 463.0
800 422.0 860.0
801 33.0 481.0
802 164.0 750.0
803 385.0 15.0
804 749.0 268.0
805 636.0 421.0
806 899.0 76.0
807 545.0 589.0
808 412.0 506.0
809 163.0 206.0
810 651.0 170.0
811 531.0 455.0
812 67.0 500.0
813 826.0 469.0
814 215.0 288.0
815 582.0 731.0
816 54.0 392.0
817 593.0 153.0
818 141.0 461.0
819 895.0 114.0
820 902.0 633.0
821 149.0 780.0
822 200.0 777.0
823 378.0 622.0
824 114.0 344.0
825 576.0 910.0
826 123.0 781.0
827 365.0 834.0
828 282.0 864.0
829 595.0 47.0
830 176.0 263.0
831 29.0 264.0
832 659.0 727.0
833 745.0 610.0
834 695.0 811.0
835 329.0 816.0
836 459.0 99.0
837 92.0 692.0
838 705.0 902.0
839 114.0 503.0
840 422.0 313.0
841 597.0 784.0
842 448.0 116.0
843 592.0 220.0
844 785.0 481.0
845 408.0 604.0
846 697.0 367.0
847 779.0 640.0
848 458.0 311.0
849 549.0 734.0
850 572.0 155.0
851 509.0 49.0
852 779.0 324.0
853 824.0 576.0
854 655.0 234.0
855 405.0 882.0
856 457.0 618.0
857 416.0 930.0
858 911.0 312.0
859 118.0 738.0
860 526.0 609.0
861 567.0 475.0
862 316.0 879.0
863 453.0 466.0
864 872.0 218.0
865 301.0 142.0
866 795.0 510.0
867 151.0 562.0
868 123.0 718.0
869 898.0 518.0
870 606.0 14.0
871 254.0 358.0
872 368.0 342.0
873 928.0 55.0
874 469.0 241.0
875 374.0 321.0
876 429.0 399.0
877 578.0 254.0
878 511.0 747.0
879 588.0 660.0
880 776.0 537.0
881 126.0 260.0
882 857.0 649.0
883 681.0 74.0
884 298.0 766.0
885 126.0 356.0
886 255.0 73.0
887 846.0 7.0
888 804.0 921.0
889 274.0 510.0
890 110.0 555.0
891 596.0 325.0
892 2.0 828.0
893 624.0 246.0
894 158.0 439.0
895 719.0 178.0
896 626.0 661.0
897 613.0 330.0
898 392.0 892.0
899 249.0 406.0
900 572.0 241.0
901 38.0 204.0
902 871.0 834.0
903 466.0 865.0
904 462.0 296.0
905 696.0 301.0
906 680.0 310.0
907 40.0 479.0
908 363.0 276.0
909 344.0 698.0
910 585.0 806.0
911 661.0 883.0
912 160.0 400.0
913 536.0 191.0
914 602.0 628.0
915 271.0 337.0
916 293.0 226.0
917 324.0 919.0
918 332.0 648.0
919 747.0 94.0
920 106.0 873.0
921 787.0 536.0
922 475.0 295.0
923 271.0 152.0
924 200.0 775.0
925 464.0 457.0
926 291.0 256.0
927 492.0 527.0
928 299.0 354.0
929 532.0 174.0
930 21.0 396.0
EOF





